Solver command line: []

Read LP format model from file C:\Users\wlhlm\AppData\Local\Temp\tmplxqppi3_.pyomo.lp
Reading time = 2.95 seconds
objective: 996960 rows, 878399 columns, 2253054 nonzeros
Set parameter MIPGap to value 0.03
Gurobi Optimizer version 12.0.1 build v12.0.1rc0 (win64 - Windows 11.0 (26100.2))

CPU model: Intel(R) Core(TM) Ultra 7 258V, instruction set [SSE2|AVX|AVX2]
Thread count: 8 physical cores, 8 logical processors, using up to 8 threads

Non-default parameters:
MIPGap  0.03

Optimize a model with 996960 rows, 878399 columns and 2253054 nonzeros
Model fingerprint: 0xb3e8dbe0
Model has 8783 quadratic constraints
Variable types: 755424 continuous, 122975 integer (105408 binary)
Coefficient statistics:
  Matrix range     [8e-03, 2e+02]
  QMatrix range    [1e+00, 1e+00]
  Objective range  [1e-02, 1e+03]
  Bounds range     [1e+00, 3e+00]
  RHS range        [8e-05, 1e+04]
Presolve removed 789181 rows and 655036 columns
Presolve time: 0.59s
Presolved: 207779 rows, 223363 columns, 648262 nonzeros
Variable types: 142675 continuous, 80688 integer (71904 binary)
Performing another presolve...
Presolve removed 70438 rows and 70438 columns (presolve time = 9s)...
Presolve removed 70438 rows and 70438 columns
Presolve time: 9.19s
Deterministic concurrent LP optimizer: primal and dual simplex
Showing primal log only...


Root simplex log...

Iteration    Objective       Primal Inf.    Dual Inf.      Time
       0    4.4311330e+07   4.751986e+07   4.829692e+13     11s
Concurrent spin time: 0.00s

Solved with dual simplex

Root simplex log...

Iteration    Objective       Primal Inf.    Dual Inf.      Time
   48581    2.1105769e+07   0.000000e+00   0.000000e+00     14s

Root relaxation: objective 2.110577e+07, 48581 iterations, 2.86 seconds (4.34 work units)
Total elapsed time = 13.56s (DegenMoves)

    Nodes    |    Current Node    |     Objective Bounds      |     Work
 Expl Unexpl |  Obj  Depth IntInf | Incumbent    BestBd   Gap | It/Node Time

     0     0 2.1106e+07    0  601          - 2.1106e+07      -     -   17s
H    0     0                    2.136960e+07 2.1106e+07  1.23%     -   18s

Explored 1 nodes (57477 simplex iterations) in 18.49 seconds (20.41 work units)
Thread count was 8 (of 8 available processors)

Solution count 1: 2.13696e+07 

Optimal solution found (tolerance 3.00e-02)
Best objective 2.136960433588e+07, best bound 2.110576932870e+07, gap 1.2346%

